Number of variables: 89
Number of constraints: 174
Constraints density: 0.1465194369107581
Maximum factor: 917000.0
Minimum factor: 0.001
20.962953567504883ms cplex
19.23656463623047ms glpk
34.46841239929199ms lp_solve
19.18196678161621ms clp
-896644.821863046 Value of objective function [cplex]
-896644.8219 Value of objective function [glpk]
-896645.0 Value of objective function [lp_solve]
-896644.82 Value of objective function [clp]
